(set-logic DTLIA)
(synth-fun s00 ((x19 Int) (x20 Int)) Int ((Ix Int) (Ic Int))
 ((Ix Int (Ic x19 x20 (- Ix) (+ Ix Ix))) (Ic Int ((Constant Int)))))
(declare-var i0 Int)
(constraint (or (not true) (= 1 (s00 i0 1))))
(check-synth)
